c User generated cnf file
p cnf 10 22
-10 1 5 0 
7 -2 6 0 
-2 1 4 0 
8 9 -6 0 
-9 8 10 0 
-1 10 3 0 
3 -4 3 0 
-9 2 6 0 
1 -3 8 0 
-1 9 8 0 
-6 8 4 0 
-7 10 4 0 
-3 8 10 0 
6 -2 10 0 
5 3 -2 0 
7 2 -5 0 
10 7 -10 0 
10 -9 10 0 
-9 3 1 0 
-5 6 5 0 
5 -9 4 0 
8 -8 10 0 
